1984
3684
3512
3454
3914
6370
1413
8695
5309
9181
6159
821
9321
8073
1194
7039
9825
6929
6049
5175
5376
3717
7250
9191
554
4853
918
931
8945
1173
3082
4853
8505
2797
9739
4104
10089
3997
9356
2811
8395
1600
3475
2422
3528
8558
1361
667
4101
2904
